12
2 1 29
3 2 26
4 1 14
4 2 18
5 1 16
5 3 27
5 4 25
6 0 4
6 1 16
6 2 29
6 4 3
7 0 12
7 1 13
7 4 2
7 6 1
8 1 25
8 3 10
8 6 24
8 7 24
9 0 26
9 1 19
9 2 14
9 4 17
9 5 22
9 7 19
9 8 4
10 3 17
10 4 1
10 5 8
10 7 15
10 9 20
11 0 7
11 1 12
11 2 7
11 4 22
11 5 22
11 7 12
11 9 26
11 10 23
